;; translated from ./ctigar/simple_nest.c.vmt
;; original benchmark available at: https://es-static.fbk.eu/people/griggio/ic3ia/index.html
;; author: Alberto Griggio <griggio@fbk.eu>
(set-logic HORN)
(declare-fun state (Bool Bool Bool Bool Int Int Int) Bool)
(assert (forall ((|.s.0| Bool) (|.s.1| Bool) (|.s.2.next| Bool) (|.s.0.next| Bool) (|.s.1.next| Bool) (|.s.3.next| Bool) (|main.i.next| Int) (|main.i| Int) (|main.m.next| Int) (|main.m| Int) (|main.n.next| Int) (|main.n| Int) (|.s.3| Bool) (|.s.2| Bool)) (=> (let ((.def_17 (not .s.3)))
(let ((.def_14 (not .s.2)))
(let ((.def_10 (not .s.1)))
(let ((.def_12 (and .def_10 .s.0)))
(let ((.def_15 (and .def_12 .def_14)))
(let ((.def_18 (and .def_15 .def_17)))
.def_18)))))) (state |.s.1| |.s.0| |.s.2| |.s.3| |main.i| |main.m| |main.n|))))
(assert (forall ((|.s.0| Bool) (|.s.1| Bool) (|.s.2.next| Bool) (|.s.0.next| Bool) (|.s.1.next| Bool) (|.s.3.next| Bool) (|main.i.next| Int) (|main.i| Int) (|main.m.next| Int) (|main.m| Int) (|main.n.next| Int) (|main.n| Int) (|.s.3| Bool) (|.s.2| Bool)) (=> (and (state |.s.1| |.s.0| |.s.2| |.s.3| |main.i| |main.m| |main.n|) (let ((.def_19 (not .s.0)))
(let ((.def_10 (not .s.1)))
(let ((.def_20 (and .def_10 .def_19)))
(let ((.def_14 (not .s.2)))
(let ((.def_85 (and .def_14 .def_20)))
(let ((.def_17 (not .s.3)))
(let ((.def_178 (and .def_17 .def_85)))
(let ((.def_179 (not .def_178)))
(let ((.def_51 (not .s.2.next)))
(let ((.def_27 (not .s.0.next)))
(let ((.def_25 (not .s.1.next)))
(let ((.def_28 (and .def_25 .def_27)))
(let ((.def_52 (and .def_28 .def_51)))
(let ((.def_50 (not .s.3.next)))
(let ((.def_53 (and .def_50 .def_52)))
(let ((.def_35 (= main.i main.i.next)))
(let ((.def_54 (and .def_35 .def_53)))
(let ((.def_39 (= main.m main.m.next)))
(let ((.def_55 (and .def_39 .def_54)))
(let ((.def_43 (= main.n main.n.next)))
(let ((.def_56 (and .def_43 .def_55)))
(let ((.def_180 (or .def_56 .def_179)))
(let ((.def_75 (and .s.1.next .def_27)))
(let ((.def_76 (and .def_51 .def_75)))
(let ((.def_173 (and .def_50 .def_76)))
(let ((.def_172 (= main.i.next 1)))
(let ((.def_174 (and .def_172 .def_173)))
(let ((.def_175 (and .def_39 .def_174)))
(let ((.def_176 (and .def_43 .def_175)))
(let ((.def_12 (and .def_10 .s.0)))
(let ((.def_15 (and .def_12 .def_14)))
(let ((.def_18 (and .def_15 .def_17)))
(let ((.def_171 (not .def_18)))
(let ((.def_177 (or .def_171 .def_176)))
(let ((.def_181 (and .def_177 .def_180)))
(let ((.def_166 (= main.m.next 10)))
(let ((.def_62 (and .s.1.next .s.0.next)))
(let ((.def_63 (and .def_51 .def_62)))
(let ((.def_88 (and .def_50 .def_63)))
(let ((.def_167 (and .def_88 .def_166)))
(let ((.def_168 (and .def_35 .def_167)))
(let ((.def_169 (and .def_43 .def_168)))
(let ((.def_58 (and .s.1 .def_19)))
(let ((.def_59 (and .def_14 .def_58)))
(let ((.def_163 (and .def_17 .def_59)))
(let ((.def_164 (not .def_163)))
(let ((.def_170 (or .def_164 .def_169)))
(let ((.def_182 (and .def_170 .def_181)))
(let ((.def_135 (and .def_25 .s.0.next)))
(let ((.def_157 (and .def_51 .def_135)))
(let ((.def_158 (and .s.3.next .def_157)))
(let ((.def_159 (and .def_35 .def_158)))
(let ((.def_160 (and .def_39 .def_159)))
(let ((.def_161 (and .def_43 .def_160)))
(let ((.def_150 (<= main.n main.i)))
(let ((.def_46 (and .s.1 .s.0)))
(let ((.def_47 (and .def_14 .def_46)))
(let ((.def_149 (and .def_17 .def_47)))
(let ((.def_155 (and .def_149 .def_150)))
(let ((.def_156 (not .def_155)))
(let ((.def_162 (or .def_156 .def_161)))
(let ((.def_183 (and .def_162 .def_182)))
(let ((.def_151 (not .def_150)))
(let ((.def_152 (and .def_149 .def_151)))
(let ((.def_153 (not .def_152)))
(let ((.def_30 (and .def_28 .s.2.next)))
(let ((.def_96 (and .def_30 .def_50)))
(let ((.def_97 (and .def_35 .def_96)))
(let ((.def_98 (and .def_39 .def_97)))
(let ((.def_99 (and .def_43 .def_98)))
(let ((.def_154 (or .def_99 .def_153)))
(let ((.def_184 (and .def_154 .def_183)))
(let ((.def_144 (and .s.3.next .def_52)))
(let ((.def_145 (and .def_35 .def_144)))
(let ((.def_146 (and .def_39 .def_145)))
(let ((.def_147 (and .def_43 .def_146)))
(let ((.def_131 (<= main.m 0)))
(let ((.def_21 (and .s.2 .def_20)))
(let ((.def_130 (and .def_17 .def_21)))
(let ((.def_142 (and .def_130 .def_131)))
(let ((.def_143 (not .def_142)))
(let ((.def_148 (or .def_143 .def_147)))
(let ((.def_185 (and .def_148 .def_184)))
(let ((.def_136 (and .s.2.next .def_135)))
(let ((.def_137 (and .def_50 .def_136)))
(let ((.def_138 (and .def_35 .def_137)))
(let ((.def_139 (and .def_39 .def_138)))
(let ((.def_140 (and .def_43 .def_139)))
(let ((.def_132 (not .def_131)))
(let ((.def_133 (and .def_130 .def_132)))
(let ((.def_134 (not .def_133)))
(let ((.def_141 (or .def_134 .def_140)))
(let ((.def_186 (and .def_141 .def_185)))
(let ((.def_124 (and .s.2.next .def_75)))
(let ((.def_125 (and .def_50 .def_124)))
(let ((.def_121 (* (- 1) main.m.next)))
(let ((.def_122 (+ main.m .def_121)))
(let ((.def_123 (= .def_122 1)))
(let ((.def_126 (and .def_123 .def_125)))
(let ((.def_127 (and .def_35 .def_126)))
(let ((.def_128 (and .def_43 .def_127)))
(let ((.def_118 (and .def_12 .s.2)))
(let ((.def_119 (and .def_17 .def_118)))
(let ((.def_120 (not .def_119)))
(let ((.def_129 (or .def_120 .def_128)))
(let ((.def_187 (and .def_129 .def_186)))
(let ((.def_112 (and .s.2.next .def_62)))
(let ((.def_113 (and .def_50 .def_112)))
(let ((.def_106 (* (- 1) main.i.next)))
(let ((.def_108 (* 2 main.i)))
(let ((.def_110 (+ .def_108 .def_106)))
(let ((.def_111 (= .def_110 0)))
(let ((.def_114 (and .def_111 .def_113)))
(let ((.def_115 (and .def_39 .def_114)))
(let ((.def_116 (and .def_43 .def_115)))
(let ((.def_101 (and .s.2 .def_58)))
(let ((.def_102 (and .def_17 .def_101)))
(let ((.def_103 (not .def_102)))
(let ((.def_117 (or .def_103 .def_116)))
(let ((.def_188 (and .def_117 .def_187)))
(let ((.def_93 (and .s.2 .def_46)))
(let ((.def_94 (and .def_17 .def_93)))
(let ((.def_95 (not .def_94)))
(let ((.def_100 (or .def_95 .def_99)))
(let ((.def_189 (and .def_100 .def_188)))
(let ((.def_89 (and .def_35 .def_88)))
(let ((.def_90 (and .def_39 .def_89)))
(let ((.def_91 (and .def_43 .def_90)))
(let ((.def_86 (and .s.3 .def_85)))
(let ((.def_87 (not .def_86)))
(let ((.def_92 (or .def_87 .def_91)))
(let ((.def_190 (and .def_92 .def_189)))
(let ((.def_71 (<= main.i 0)))
(let ((.def_69 (and .def_15 .s.3)))
(let ((.def_82 (and .def_69 .def_71)))
(let ((.def_83 (not .def_82)))
(let ((.def_32 (and .def_30 .s.3.next)))
(let ((.def_36 (and .def_32 .def_35)))
(let ((.def_40 (and .def_36 .def_39)))
(let ((.def_44 (and .def_40 .def_43)))
(let ((.def_84 (or .def_44 .def_83)))
(let ((.def_191 (and .def_84 .def_190)))
(let ((.def_77 (and .s.3.next .def_76)))
(let ((.def_78 (and .def_35 .def_77)))
(let ((.def_79 (and .def_39 .def_78)))
(let ((.def_80 (and .def_43 .def_79)))
(let ((.def_72 (not .def_71)))
(let ((.def_73 (and .def_69 .def_72)))
(let ((.def_74 (not .def_73)))
(let ((.def_81 (or .def_74 .def_80)))
(let ((.def_192 (and .def_81 .def_191)))
(let ((.def_64 (and .s.3.next .def_63)))
(let ((.def_65 (and .def_35 .def_64)))
(let ((.def_66 (and .def_39 .def_65)))
(let ((.def_67 (and .def_43 .def_66)))
(let ((.def_60 (and .s.3 .def_59)))
(let ((.def_61 (not .def_60)))
(let ((.def_68 (or .def_61 .def_67)))
(let ((.def_193 (and .def_68 .def_192)))
(let ((.def_48 (and .s.3 .def_47)))
(let ((.def_49 (not .def_48)))
(let ((.def_57 (or .def_49 .def_56)))
(let ((.def_194 (and .def_57 .def_193)))
(let ((.def_22 (and .s.3 .def_21)))
(let ((.def_23 (not .def_22)))
(let ((.def_45 (or .def_23 .def_44)))
(let ((.def_195 (and .def_45 .def_194)))
.def_195)))))))))))))))))))))))))))))))))))))))))))))))))))))))))))))))))))))))))))))))))))))))))))))))))))))))))))))))))))))))))))))))))))))))))))))))))))))))))))))))))))))))) (state |.s.1.next| |.s.0.next| |.s.2.next| |.s.3.next| |main.i.next| |main.m.next| |main.n.next|))))
(assert (forall ((|.s.0| Bool) (|.s.1| Bool) (|.s.2.next| Bool) (|.s.0.next| Bool) (|.s.1.next| Bool) (|.s.3.next| Bool) (|main.i.next| Int) (|main.i| Int) (|main.m.next| Int) (|main.m| Int) (|main.n.next| Int) (|main.n| Int) (|.s.3| Bool) (|.s.2| Bool)) (=> (state |.s.1| |.s.0| |.s.2| |.s.3| |main.i| |main.m| |main.n|) (let ((.def_19 (not .s.0)))
(let ((.def_10 (not .s.1)))
(let ((.def_20 (and .def_10 .def_19)))
(let ((.def_21 (and .s.2 .def_20)))
(let ((.def_22 (and .s.3 .def_21)))
(let ((.def_23 (not .def_22)))
.def_23)))))))))
(check-sat)
